units       metal
dimension   3
boundary    p p p
atom_style  full
newton on

read_data   POSCAR.lmp

######################## Potential defition ########################

pair_style hybrid/overlay rebo extep ilp/graphene/hbn 16.0 1
pair_coeff * * rebo CH.rebo NULL C NULL
pair_coeff * * extep BN.extep B NULL N
pair_coeff * * ilp/graphene/hbn BNCH.ILP B C N

####################################################################
neighbor        2.0 bin
neigh_modify    delay 0 one 10000

delete_atoms overlap 1.2 all all

compute csym all centro/atom 12
compute mytemp all temp
compute 2 all stress/atom mytemp
compute 21 all reduce sum c_2[1]
compute 22 all reduce sum c_2[2]
compute 23 all reduce sum c_2[3]
compute 24 all reduce sum c_2[4]
compute 25 all reduce sum c_2[5]
compute 26 all reduce sum c_2[6]

compute 3 all pe/atom 
compute 4 all reduce sum c_3
# compute 6 all pair rebo
# compute 8 all pair ilp/graphene/hbn

timestep    0.0005

thermo         100
# thermo_style   custom step pe ke etotal temp c_mytemp c_6 c_8
thermo_style   custom step pe ke etotal temp c_mytemp

group freeze_group molecule 2 3
group relax_group molecule 0 1
fix freeze freeze_group setforce 0.0 0.0 0.0
fix cal_nve relax_group nve

dump           mydump all custom 50 cycle_*.txt id mol type x y z c_csym c_2[1] c_2[2] c_2[3] c_2[4] c_2[5] c_2[6] c_3 

min_style cg
minimize       1e-11 1e-12 100000 10000000

unfix cal_nve
undump mydump
